p cnf 20 20
-4 -5 -7 0
17 9 -10 0
8 -7 -9 0
-18 -8 10 0
6 -15 -20 0
-5 13 -8 0
2 -12 -10 0
-1 15 -18 0
-2 -5 -19 0
10 6 -19 0
20 -19 15 0
-19 -14 15 0
8 14 -11 0
-19 6 12 0
-7 -5 20 0
-14 -9 6 0
2 -8 3 0
-3 20 9 0
-8 3 -1 0
-4 18 5 0
